
Gurobi 13.0.0 (linux64) logging started Fri Jan 16 03:50:26 2026

Set parameter LogFile to value "../experiments/network-n_50_s_2_rp_0-app_set-id_42_19_apps/submip_40_epr1_model_gurobi.log"
Set parameter TimeLimit to value 8.2443496790700010e+02
Gurobi Optimizer version 13.0.0 build v13.0.0rc1 (linux64 - "Ubuntu 24.04.3 LTS")

CPU model: Intel(R) Core(TM) Ultra 7 165H, instruction set [SSE2|AVX|AVX2]
Thread count: 22 physical cores, 22 logical processors, using up to 22 threads

Non-default parameters:
TimeLimit  8.2443496790700010e+02
LogToConsole  0

Academic license 2539022 - for non-commercial use only - registered to al___@studenti.unimi.it
Optimize a model with 33863 rows, 6200 columns and 76204 nonzeros (Min)
Model fingerprint: 0x1a5429e6
Model has 6200 linear objective coefficients
Model has 162 quadratic constraints
Variable types: 0 continuous, 6200 integer (6200 binary)
Coefficient statistics:
  Matrix range     [1e+00, 9e+02]
  QMatrix range    [5e+01, 2e+02]
  Objective range  [1e+01, 2e+02]
  Bounds range     [1e+00, 1e+00]
  RHS range        [1e+00, 1e+09]
  QRHS range       [1e+02, 6e+02]
Presolve removed 33401 rows and 5162 columns
Presolve time: 0.10s
Presolved: 5219 rows, 5646 columns, 33344 nonzeros
Variable types: 0 continuous, 5646 integer (5646 binary)

Root relaxation: objective 4.827377e+03, 1299 iterations, 0.07 seconds (0.10 work units)

    Nodes    |    Current Node    |     Objective Bounds      |     Work
 Expl Unexpl |  Obj  Depth IntInf | Incumbent    BestBd   Gap | It/Node Time

     0     0 4827.37732    0  159          - 4827.37732      -     -    0s
     0     0 infeasible    0               - infeasible      -     -    0s

Cutting planes:
  Gomory: 4
  Cover: 40
  Clique: 23
  MIR: 36
  Knapsack: 8
  StrongCG: 24
  GUB cover: 9
  Zero half: 11
  RLT: 50
  Relax-and-lift: 20
  BQP: 33

Explored 1 nodes (2405 simplex iterations) in 0.93 seconds (0.78 work units)
Thread count was 22 (of 22 available processors)

Solution count 0

Model is infeasible
Best objective -, best bound -, gap -

User-callback calls 1003, time in user-callback 0.00 sec
